n_agents = 9;

% transfered from the photo1.dzn instance from the MZN benchmark
friends = [
{1,3,4,5,6,8}, % 01
{2,5,9},       % 02
{1,3,4,5,7},   % 03
{1,3,4,5},     % 04
1..6,          % 05
{1,5,6,9},     % 06
{3,7,8},       % 07
{1,7,8,9},     % 08
{2,6,8,9}]     % 09